(set-info :source |printed by MathSAT|)
(declare-fun |!{$(in_main#0)<N>}| () Int)
(declare-fun |!{$(in_main#0)<N>}.next| () Int)
(declare-fun |!{%memaddr}| () Int)
(declare-fun |!{%memaddr}.next| () Int)
(declare-fun |!{$(in_main#0)<&array>}| () Int)
(declare-fun |!{$(in_main#0)<&array>}.next| () Int)
(declare-fun |!{%mem.0}| () (Array Int Int))
(declare-fun |!{%mem.0}.next| () (Array Int Int))
(declare-fun |!{$(in_main#0)<k>}| () Int)
(declare-fun |!{$(in_main#0)<k>}.next| () Int)
(declare-fun |!{$(in_main#0)<k#1>}| () Int)
(declare-fun |!{$(in_main#0)<k#1>}.next| () Int)
(declare-fun |!{$(in_main#0)<v>}| () Int)
(declare-fun |!{$(in_main#0)<v>}.next| () Int)
(declare-fun |!{$(in_main#0)<$(in___VERIFIER_nondet_int#1)<h#<__VERIFIER_nondet_int.return>>>}| () Int)
(declare-fun |!{$(in_main#0)<$(in___VERIFIER_nondet_int#3)<h#<__VERIFIER_nondet_int.return>>>}| () Int)
(declare-fun |!{$(in_main#0)<$(in___VERIFIER_nondet_int#4)<h#<__VERIFIER_nondet_int.return>>>}| () Int)
(declare-fun |!{$(in_main#0)<$(in_rec_array_find#5)<$temp.1>>}| () Int)
(declare-fun |!{$(in_main#0)<$(in_rec_array_find#5)<$tmp>>}| () Int)
(declare-fun |!{$(in_main#0)<$(in_rec_array_find#5)<$(in_rec_array_find#0)<$temp.1>>>}| () Int)
(declare-fun |!{$(in_main#0)<$(in_rec_array_find#5)<$(in_rec_array_find#0)<$tmp>>>}| () Int)
(declare-fun !pc () Int)
(declare-fun !pc.next () Int)
(declare-fun |%{$(in_main#0)<k#1>}#1| () Int)
(declare-fun |%{$(in_main#0)<v>}#1| () Int)
(declare-fun rec_array_find<0> (Int Int Int) Int)
(declare-fun |%{$(in_main#0)<$(in_rec_array_find#5)<$(in_rec_array_find#0)<$temp.1>>>}#3| () Int)
(declare-fun |%{$(in_main#0)<$(in_rec_array_find#5)<$(in_rec_array_find#0)<$tmp>>>}#3| () Int)
(declare-fun |%{$(in_main#0)<$(in_rec_array_find#5)<$(in_rec_array_find#0)<rec_array_find.return>>>}#3| () Int)
(declare-fun |%{$(in_main#0)<$(in_rec_array_find#5)<$temp.1>>}#3| () Int)
(declare-fun |%{$(in_main#0)<$(in_rec_array_find#5)<$tmp>>}#3| () Int)
(declare-fun |%{$(in_main#0)<$(in_rec_array_find#5)<rec_array_find.return>>}#3| () Int)
(define-fun .def_59 () Int (! !pc :next !pc.next))
(define-fun .def_62 () Bool (! (= .def_59 2) :init true))
(define-fun .def_302 () Bool (= .def_59 51))
(define-fun .def_144 () Bool (= !pc.next 159))
(define-fun .def_309 () Bool (and .def_144 .def_302))
(define-fun .def_296 () Bool (= |!{$(in_main#0)<k#1>}.next| 0))
(define-fun .def_8 () Int (! |!{$(in_main#0)<N>}| :next |!{$(in_main#0)<N>}.next|))
(define-fun .def_111 () Bool (= .def_8 |!{$(in_main#0)<N>}.next|))
(define-fun .def_10 () Int (! |!{%memaddr}| :next |!{%memaddr}.next|))
(define-fun .def_109 () Bool (= .def_10 |!{%memaddr}.next|))
(define-fun .def_123 () Bool (and .def_109 .def_111))
(define-fun .def_12 () Int (! |!{$(in_main#0)<&array>}| :next |!{$(in_main#0)<&array>}.next|))
(define-fun .def_113 () Bool (= .def_12 |!{$(in_main#0)<&array>}.next|))
(define-fun .def_124 () Bool (and .def_113 .def_123))
(define-fun .def_14 () (Array Int Int) (! |!{%mem.0}| :next |!{%mem.0}.next|))
(define-fun .def_84 () Bool (= .def_14 |!{%mem.0}.next|))
(define-fun .def_125 () Bool (and .def_84 .def_124))
(define-fun .def_16 () Int (! |!{$(in_main#0)<k>}| :next |!{$(in_main#0)<k>}.next|))
(define-fun .def_116 () Bool (= .def_16 |!{$(in_main#0)<k>}.next|))
(define-fun .def_126 () Bool (and .def_116 .def_125))
(define-fun .def_297 () Bool (and .def_126 .def_296))
(define-fun .def_291 () Bool (= |!{$(in_main#0)<v>}.next| |!{$(in_main#0)<$(in___VERIFIER_nondet_int#4)<h#<__VERIFIER_nondet_int.return>>>}|))
(define-fun .def_298 () Bool (and .def_291 .def_297))
(define-fun .def_257 () Bool (= |%{$(in_main#0)<$(in_rec_array_find#5)<rec_array_find.return>>}#3| (- 1)))
(define-fun .def_299 () Bool (and .def_257 .def_298))
(define-fun .def_233 () Bool (= |!{$(in_main#0)<$(in_rec_array_find#5)<$temp.1>>}| |%{$(in_main#0)<$(in_rec_array_find#5)<$temp.1>>}#3|))
(define-fun .def_163 () Bool (<= .def_8 0))
(define-fun .def_255 () Bool (and .def_163 .def_233))
(define-fun .def_239 () Bool (= |!{$(in_main#0)<$(in_rec_array_find#5)<$tmp>>}| |%{$(in_main#0)<$(in_rec_array_find#5)<$tmp>>}#3|))
(define-fun .def_256 () Bool (and .def_239 .def_255))
(define-fun .def_258 () Bool (and .def_256 .def_257))
(define-fun .def_248 () Bool (= |%{$(in_main#0)<$(in_rec_array_find#5)<$(in_rec_array_find#0)<rec_array_find.return>>>}#3| |%{$(in_main#0)<$(in_rec_array_find#5)<rec_array_find.return>>}#3|))
(define-fun .def_240 () Bool (= |%{$(in_main#0)<$(in_rec_array_find#5)<$(in_rec_array_find#0)<rec_array_find.return>>>}#3| |%{$(in_main#0)<$(in_rec_array_find#5)<$tmp>>}#3|))
(define-fun .def_234 () Bool (= |%{$(in_main#0)<$(in_rec_array_find#5)<$(in_rec_array_find#0)<rec_array_find.return>>>}#3| |%{$(in_main#0)<$(in_rec_array_find#5)<$temp.1>>}#3|))
(define-fun .def_223 () Bool (= |%{$(in_main#0)<$(in_rec_array_find#5)<$(in_rec_array_find#0)<rec_array_find.return>>>}#3| (- 1)))
(define-fun .def_193 () Bool (= |!{$(in_main#0)<$(in_rec_array_find#5)<$(in_rec_array_find#0)<$temp.1>>>}| |%{$(in_main#0)<$(in_rec_array_find#5)<$(in_rec_array_find#0)<$temp.1>>>}#3|))
(define-fun .def_172 () Bool (<= .def_8 1))
(define-fun .def_221 () Bool (and .def_172 .def_193))
(define-fun .def_199 () Bool (= |!{$(in_main#0)<$(in_rec_array_find#5)<$(in_rec_array_find#0)<$tmp>>>}| |%{$(in_main#0)<$(in_rec_array_find#5)<$(in_rec_array_find#0)<$tmp>>>}#3|))
(define-fun .def_222 () Bool (and .def_199 .def_221))
(define-fun .def_224 () Bool (and .def_222 .def_223))
(define-fun .def_181 () Int (+ .def_8 (- 2)))
(define-fun .def_182 () Int (rec_array_find<0> .def_12 |!{$(in_main#0)<$(in___VERIFIER_nondet_int#4)<h#<__VERIFIER_nondet_int.return>>>}| .def_181))
(define-fun .def_210 () Bool (= .def_182 |%{$(in_main#0)<$(in_rec_array_find#5)<$(in_rec_array_find#0)<rec_array_find.return>>>}#3|))
(define-fun .def_200 () Bool (= .def_182 |%{$(in_main#0)<$(in_rec_array_find#5)<$(in_rec_array_find#0)<$tmp>>>}#3|))
(define-fun .def_194 () Bool (= .def_182 |%{$(in_main#0)<$(in_rec_array_find#5)<$(in_rec_array_find#0)<$temp.1>>>}#3|))
(define-fun .def_167 () Int (+ .def_8 .def_12))
(define-fun .def_177 () Int (+ .def_167 (- 2)))
(define-fun .def_178 () Int (select .def_14 .def_177))
(define-fun .def_179 () Bool (= |!{$(in_main#0)<$(in___VERIFIER_nondet_int#4)<h#<__VERIFIER_nondet_int.return>>>}| .def_178))
(define-fun .def_180 () Bool (not .def_179))
(define-fun .def_196 () Bool (and .def_180 .def_194))
(define-fun .def_202 () Bool (and .def_196 .def_200))
(define-fun .def_212 () Bool (and .def_202 .def_210))
(define-fun .def_207 () Int (* (- 1) |%{$(in_main#0)<$(in_rec_array_find#5)<$(in_rec_array_find#0)<rec_array_find.return>>>}#3|))
(define-fun .def_208 () Int (+ .def_8 .def_207))
(define-fun .def_209 () Bool (= .def_208 2))
(define-fun .def_195 () Bool (and .def_179 .def_193))
(define-fun .def_201 () Bool (and .def_195 .def_199))
(define-fun .def_211 () Bool (and .def_201 .def_209))
(define-fun .def_213 () Bool (or .def_211 .def_212))
(define-fun .def_173 () Bool (not .def_172))
(define-fun .def_214 () Bool (and .def_173 .def_213))
(define-fun .def_225 () Bool (or .def_214 .def_224))
(define-fun .def_168 () Int (+ .def_167 (- 1)))
(define-fun .def_169 () Int (select .def_14 .def_168))
(define-fun .def_170 () Bool (= |!{$(in_main#0)<$(in___VERIFIER_nondet_int#4)<h#<__VERIFIER_nondet_int.return>>>}| .def_169))
(define-fun .def_171 () Bool (not .def_170))
(define-fun .def_226 () Bool (and .def_171 .def_225))
(define-fun .def_236 () Bool (and .def_226 .def_234))
(define-fun .def_242 () Bool (and .def_236 .def_240))
(define-fun .def_250 () Bool (and .def_242 .def_248))
(define-fun .def_245 () Int (* (- 1) |%{$(in_main#0)<$(in_rec_array_find#5)<rec_array_find.return>>}#3|))
(define-fun .def_246 () Int (+ .def_8 .def_245))
(define-fun .def_247 () Bool (= .def_246 1))
(define-fun .def_235 () Bool (and .def_170 .def_233))
(define-fun .def_241 () Bool (and .def_235 .def_239))
(define-fun .def_249 () Bool (and .def_241 .def_247))
(define-fun .def_251 () Bool (or .def_249 .def_250))
(define-fun .def_164 () Bool (not .def_163))
(define-fun .def_252 () Bool (and .def_164 .def_251))
(define-fun .def_259 () Bool (or .def_252 .def_258))
(define-fun .def_300 () Bool (and .def_259 .def_299))
(define-fun .def_158 () Bool (<= .def_8 .def_16))
(define-fun .def_301 () Bool (and .def_158 .def_300))
(define-fun .def_310 () Bool (and .def_301 .def_309))
(define-fun .def_305 () Bool (= !pc.next 205))
(define-fun .def_306 () Bool (and .def_302 .def_305))
(define-fun .def_262 () Int (+ .def_12 |%{$(in_main#0)<$(in_rec_array_find#5)<rec_array_find.return>>}#3|))
(define-fun .def_263 () Int (select .def_14 .def_262))
(define-fun .def_264 () Bool (= |!{$(in_main#0)<$(in___VERIFIER_nondet_int#4)<h#<__VERIFIER_nondet_int.return>>>}| .def_263))
(define-fun .def_265 () Int (ite .def_264 1 0))
(define-fun .def_266 () Bool (= .def_265 0))
(define-fun .def_285 () Bool (and .def_109 .def_266))
(define-fun .def_286 () Bool (and .def_111 .def_285))
(define-fun .def_287 () Bool (and .def_113 .def_286))
(define-fun .def_288 () Bool (and .def_84 .def_287))
(define-fun .def_289 () Bool (and .def_116 .def_288))
(define-fun .def_18 () Int (! |!{$(in_main#0)<k#1>}| :next |!{$(in_main#0)<k#1>}.next|))
(define-fun .def_118 () Bool (= .def_18 |!{$(in_main#0)<k#1>}.next|))
(define-fun .def_290 () Bool (and .def_118 .def_289))
(define-fun .def_292 () Bool (and .def_290 .def_291))
(define-fun .def_261 () Bool (not .def_257))
(define-fun .def_293 () Bool (and .def_261 .def_292))
(define-fun .def_294 () Bool (and .def_259 .def_293))
(define-fun .def_295 () Bool (and .def_158 .def_294))
(define-fun .def_307 () Bool (and .def_295 .def_306))
(define-fun .def_94 () Bool (= !pc.next 51))
(define-fun .def_303 () Bool (and .def_94 .def_302))
(define-fun .def_278 () Int (* (- 1) |!{$(in_main#0)<k>}.next|))
(define-fun .def_279 () Int (+ .def_16 .def_278))
(define-fun .def_280 () Bool (= .def_279 (- 1)))
(define-fun .def_160 () Int (+ .def_12 .def_16))
(define-fun .def_161 () (Array Int Int) (store .def_14 .def_160 |!{$(in_main#0)<$(in___VERIFIER_nondet_int#3)<h#<__VERIFIER_nondet_int.return>>>}|))
(define-fun .def_276 () Bool (= |!{%mem.0}.next| .def_161))
(define-fun .def_277 () Bool (and .def_124 .def_276))
(define-fun .def_281 () Bool (and .def_277 .def_280))
(define-fun .def_282 () Bool (and .def_118 .def_281))
(define-fun .def_20 () Int (! |!{$(in_main#0)<v>}| :next |!{$(in_main#0)<v>}.next|))
(define-fun .def_120 () Bool (= .def_20 |!{$(in_main#0)<v>}.next|))
(define-fun .def_283 () Bool (and .def_120 .def_282))
(define-fun .def_159 () Bool (not .def_158))
(define-fun .def_284 () Bool (and .def_159 .def_283))
(define-fun .def_304 () Bool (and .def_284 .def_303))
(define-fun .def_308 () Bool (or .def_304 .def_307))
(define-fun .def_311 () Bool (or .def_308 .def_310))
(define-fun .def_148 () Bool (= !pc.next 0))
(define-fun .def_139 () Bool (= .def_59 159))
(define-fun .def_149 () Bool (and .def_139 .def_148))
(define-fun .def_135 () Bool (and .def_118 .def_126))
(define-fun .def_136 () Bool (and .def_120 .def_135))
(define-fun .def_97 () Bool (<= .def_8 .def_18))
(define-fun .def_137 () Bool (and .def_97 .def_136))
(define-fun .def_150 () Bool (and .def_137 .def_149))
(define-fun .def_145 () Bool (and .def_139 .def_144))
(define-fun .def_128 () Int (* (- 1) |!{$(in_main#0)<k#1>}.next|))
(define-fun .def_129 () Int (+ .def_18 .def_128))
(define-fun .def_130 () Bool (= .def_129 (- 1)))
(define-fun .def_131 () Bool (and .def_126 .def_130))
(define-fun .def_132 () Bool (and .def_120 .def_131))
(define-fun .def_99 () Int (+ .def_12 .def_18))
(define-fun .def_100 () Int (select .def_14 .def_99))
(define-fun .def_101 () Bool (= .def_20 .def_100))
(define-fun .def_102 () Bool (not .def_101))
(define-fun .def_103 () Int (ite .def_102 1 0))
(define-fun .def_104 () Bool (= .def_103 0))
(define-fun .def_105 () Bool (not .def_104))
(define-fun .def_133 () Bool (and .def_105 .def_132))
(define-fun .def_98 () Bool (not .def_97))
(define-fun .def_134 () Bool (and .def_98 .def_133))
(define-fun .def_146 () Bool (and .def_134 .def_145))
(define-fun .def_141 () Bool (= !pc.next 179))
(define-fun .def_142 () Bool (and .def_139 .def_141))
(define-fun .def_110 () Bool (and .def_104 .def_109))
(define-fun .def_112 () Bool (and .def_110 .def_111))
(define-fun .def_114 () Bool (and .def_112 .def_113))
(define-fun .def_115 () Bool (and .def_84 .def_114))
(define-fun .def_117 () Bool (and .def_115 .def_116))
(define-fun .def_119 () Bool (and .def_117 .def_118))
(define-fun .def_121 () Bool (and .def_119 .def_120))
(define-fun .def_122 () Bool (and .def_98 .def_121))
(define-fun .def_143 () Bool (and .def_122 .def_142))
(define-fun .def_147 () Bool (or .def_143 .def_146))
(define-fun .def_151 () Bool (or .def_147 .def_150))
(define-fun .def_95 () Bool (and .def_62 .def_94))
(define-fun .def_90 () Bool (= |!{$(in_main#0)<v>}.next| |%{$(in_main#0)<v>}#1|))
(define-fun .def_88 () Bool (= |!{$(in_main#0)<k#1>}.next| |%{$(in_main#0)<k#1>}#1|))
(define-fun .def_86 () Bool (= |!{$(in_main#0)<k>}.next| 0))
(define-fun .def_82 () Bool (= |!{$(in_main#0)<&array>}.next| 1))
(define-fun .def_80 () Bool (= |!{$(in_main#0)<N>}.next| |!{$(in_main#0)<$(in___VERIFIER_nondet_int#1)<h#<__VERIFIER_nondet_int.return>>>}|))
(define-fun .def_79 () Bool (= |!{%memaddr}.next| 2))
(define-fun .def_81 () Bool (and .def_79 .def_80))
(define-fun .def_83 () Bool (and .def_81 .def_82))
(define-fun .def_85 () Bool (and .def_83 .def_84))
(define-fun .def_87 () Bool (and .def_85 .def_86))
(define-fun .def_89 () Bool (and .def_87 .def_88))
(define-fun .def_91 () Bool (and .def_89 .def_90))
(define-fun .def_74 () Bool (<= |!{$(in_main#0)<$(in___VERIFIER_nondet_int#1)<h#<__VERIFIER_nondet_int.return>>>}| 0))
(define-fun .def_75 () Bool (not .def_74))
(define-fun .def_76 () Int (ite .def_75 1 0))
(define-fun .def_77 () Bool (= .def_76 0))
(define-fun .def_78 () Bool (not .def_77))
(define-fun .def_92 () Bool (and .def_78 .def_91))
(define-fun .def_96 () Bool (and .def_92 .def_95))
(define-fun .def_152 () Bool (or .def_96 .def_151))
(define-fun .def_312 () Bool (! (or .def_152 .def_311) :trans true))
(define-fun .def_156 () Bool (= .def_59 205))
(define-fun .def_153 () Bool (= .def_59 179))
(define-fun .def_313 () Bool (or .def_153 .def_156))
(define-fun .def_314 () Bool (! (not .def_313) :invar-property 0 :invar-property-name ||))
(assert true)
